Minimize
    13 x11 + 25 x12 + 25 x21 + 16 x22 + 15 x31 + 40 x32

Subject To
    R1: x11 + x12 = 70
    R2: x21 + x22 = 130
    R3: x31 + x32 = 120
    R4: x11 + x21 + x31 = 180
    R5: x12 + x22 + x32 = 140
    
Bounds
    x11 >= 0
    x12 >= 0
    x21 >= 0
    x22 >= 0
    x31 >= 0
    x32 >= 0

End
